(set-logic QF_FP)
(set-info :source |Random FP created by PyMPF|)
(set-info :category random)
(set-info :status unsat)
(declare-const x Float32)
(assert (= x (fp #b1 #b11110110 #b11011100010000010001101)))
(declare-const y Float32)
(assert (= y ((_ to_fp 8 24) #x80000001)))
(declare-const z Float32)
(assert (= z ((_ to_fp 8 24) #x80000000)))
(declare-const result Float32)
(assert (= result (fp.fma RTP x y z)))
(assert (not (= result ((_ to_fp 8 24) #x30EE208D))))
(check-sat)
(exit)
